/*********************************************
 * OPL 12.10.0.0 Data
 * Author: vu
 * Creation Date: Nov 3, 2020 at 10:32:30 AM
 *********************************************/

 // G(V, E)
 
 n = 4; // cardinal 
 V = [1,2,3,4]; // V
 // Cost
 // c_ij
 
C = [
	[0,2,1,5],
	[2,0,7,3],
	[1,7,0,4],
	[5,3,4,0]
	];
  